(declare-const a Real)
(declare-const b Real)
(assert (< (+ a b) 6))
(assert (> a 0))
(assert (> b 0))
(assert (not (<= (+ -4 (* (/ 1 16) (pow (+ (* 2 (pow 2 (/ 1 2))) (* 2 (pow (+ (pow (+ (* (pow (+ a b) (/ 1 2)) (pow (+ a (* 7 b)) (/ -1 2))) (* 6 (pow a (/ 1 2)) (pow b (/ 1 2)) (pow (+ (* 8 (pow (+ a b) 2)) (* 36 a b)) (/ -1 2)))) 2) (* (pow (+ b (* 7 a)) -1) (+ a b))) (/ 1 2)))) 2) (pow (+ (/ 1 2) (* (/ 1 4) (pow (+ (pow (+ (* (pow (+ a b) (/ 1 2)) (pow (+ a (* 7 b)) (/ -1 2))) (* 6 (pow a (/ 1 2)) (pow b (/ 1 2)) (pow (+ (* 8 (pow (+ a b) 2)) (* 36 a b)) (/ -1 2)))) 2) (* (pow (+ b (* 7 a)) -1) (+ a b))) (/ 1 2))) (* (pow 2 (/ 1 2)) (pow 4 -1))) 4))) 0)))
(check-sat)
(get-model)
(exit)